50
100
70	3
69	3
68	1
67	1
66	2
65	2
64	1
62	3
61	2
59	3
58	2
57	1
56	1
55	2
54	3
52	1
51	3
50	4
49	2
48	4
47	2
45	1
44	3
41	1
39	2
38	4
37	1
36	2
35	1
34	1
33	1
31	1
30	2
28	2
27	1
26	5
24	3
23	1
22	2
21	2
20	1
19	1
18	1
17	1
16	1
15	1
14	4
13	5
12	1
11	2
